50, 921675
12648, 4865
13088, 5001
12807, 5031
13072, 4998
13236, 5012
12407, 4946
13009, 4971
12460, 5010
12543, 4780
12291, 4983
12738, 4997
12866, 4998
12647, 5014
12308, 5018
13140, 4873
12697, 4820
12788, 4957
12755, 5031
13039, 5068
12396, 4988
12634, 4884
13289, 4981
12879, 5022
12789, 4949
12988, 4901
899450, 238650
887349, 233877
875159, 229104
863418, 224331
851337, 219558
839122, 214785
827019, 210012
815685, 205239
803508, 200466
791761, 195693
779995, 190920
767793, 186147
755797, 181374
743584, 176601
731686, 171828
719819, 167055
708411, 162282
696168, 157509
683933, 152736
671708, 147963
660650, 143190
648768, 138417
637330, 133644
625787, 128871
613617, 124098
